SCIP Status        : problem is solved [optimal solution found]
Total Time         :       3.59
  solving          :       3.59
  presolving       :       0.01 (included in solving)
  reading          :       0.00
  copying          :       0.01 (4 #copies) (minimal 0.00, maximal 0.00, average 0.00)
Original Problem   :
  Problem name     : wastepaper3
  Variables        : 52 (3 binary, 24 integer, 0 implicit integer, 25 continuous)
  Constraints      : 30 initial, 30 maximal
  Objective        : minimize, 1 non-zeros (abs.min = 1, abs.max = 1)
Presolved Problem  :
  Problem name     : t_wastepaper3
  Variables        : 128 (27 binary, 0 integer, 0 implicit integer, 101 continuous)
  Constraints      : 29 initial, 44 maximal
  Objective        : minimize, 1 non-zeros (abs.min = 1, abs.max = 1)
  Nonzeros         : 175 constraint, 31 clique table
Presolvers         :   ExecTime  SetupTime  Calls  FixedVars   AggrVars   ChgTypes  ChgBounds   AddHoles    DelCons    AddCons   ChgSides   ChgCoefs
  boundshift       :       0.00       0.00      0          0          0          0          0          0          0          0          0          0
  convertinttobin  :       0.00       0.00      0          0          0          0          0          0          0          0          0          0
  domcol           :       0.00       0.00      1          0          0          0          0          0          0          0          0          0
  dualagg          :       0.00       0.00      0          0          0          0          0          0          0          0          0          0
  dualcomp         :       0.00       0.00      1          0          0          0          0          0          0          0          0          0
  dualinfer        :       0.00       0.00      0          0          0          0          0          0          0          0          0          0
  dualsparsify     :       0.00       0.00      1          0          0          0          0          0          0          0          0          0
  gateextraction   :       0.00       0.00      0          0          0          0          0          0          0          0          0          0
  implics          :       0.00       0.00      2          0          0          0          0          0          0          0          0          0
  inttobinary      :       0.00       0.00      0          0          0          0          0          0          0          0          0          0
  qpkktref         :       0.00       0.00      0          0          0          0          0          0          0          0          0          0
  redvub           :       0.00       0.00      0          0          0          0          0          0          0          0          0          0
  sparsify         :       0.00       0.00      1          0          0          0          0          0          0          0          0          0
  stuffing         :       0.00       0.00      0          0          0          0          0          0          0          0          0          0
  trivial          :       0.00       0.00      3          0          0          0          0          0          0          0          0          0
  tworowbnd        :       0.00       0.00      0          0          0          0          0          0          0          0          0          0
  dualfix          :       0.00       0.00      3          0          0          0          0          0          0          0          0          0
  genvbounds       :       0.00       0.00      0          0          0          0          0          0          0          0          0          0
  probing          :       0.00       0.00      1          0          0          0          0          0          0          0          0          0
  pseudoobj        :       0.00       0.00      0          0          0          0          0          0          0          0          0          0
  symmetry         :       0.00       0.00      1          0          0          0          0          0          0          0          0          0
  vbounds          :       0.00       0.00      1          0          0          0          0          0          0          0          0          0
  setppc           :       0.00       0.00      3          0          0          0          0          0          0          0          0          0
  linear           :       0.00       0.00      5          0          0          0          1          0          1          0          0          0
  logicor          :       0.00       0.00      0          0          0          0          0          0          0          0          0          0
  bounddisjunction :       0.00       0.00      0          0          0          0          0          0          0          0          0          0
  nonlinear        :       0.00       0.00      6          0          0          0          3          0          0          0          0          0
  benders          :       0.00       0.00      0          0          0          0          0          0          0          0          0          0
  components       :       0.00       0.00      1          0          0          0          0          0          0          0          0          0
  root node        :          -          -      -          1          -          -         89          -          -          -          -          -
Constraints        :     Number  MaxNumber  #Separate #Propagate    #EnfoLP    #EnfoRelax  #EnfoPS    #Check   #ResProp    Cutoffs    DomReds       Cuts    Applied      Conss   Children
  benderslp        :          0          0          0          0       1164          0          0        522          0          0          0          0          0          0          0
  integral         :          0          0          0          0       1164          0          0        522          0          0       2310          0          0         14       1172
  setppc           :          7+        11         24       8907          1          0          0        518          1         67       1900          0          0          0          0
  linear           :          6+        22         24      10741          7          0          0        505          1        242       6406          0          0          0          0
  logicor          :          0+         1          0          3          0          0          0          0          0          0          2          0          0          0          0
  bounddisjunction :          0+         1          0          2          0          0          0          0          0          0          0          0          0          0          0
  nonlinear        :         16         16       2572      10499        356          0          0        505          0        364      91455       8752       7253          0        352
  benders          :          0          0          0          0          7          0          0          6          0          0          0          0          0          0          0
  countsols        :          0          0          0          0          7          0          0          6          0          0          0          0          0          0          0
  components       :          0          0          0          0          0          0          0          0          0          0          0          0          0          0          0
Constraint Timings :  TotalTime  SetupTime   Separate  Propagate     EnfoLP     EnfoPS     EnfoRelax   Check    ResProp    SB-Prop
  benderslp        :       0.00       0.00       0.00       0.00       0.00       0.00       0.00       0.00       0.00       0.00
  integral         :       0.38       0.00       0.00       0.00       0.38       0.00       0.00       0.00       0.00       0.00
  setppc           :       0.01       0.00       0.00       0.00       0.00       0.00       0.00       0.00       0.00       0.00
  linear           :       0.02       0.00       0.00       0.01       0.00       0.00       0.00       0.00       0.00       0.01
  logicor          :       0.00       0.00       0.00       0.00       0.00       0.00       0.00       0.00       0.00       0.00
  bounddisjunction :       0.00       0.00       0.00       0.00       0.00       0.00       0.00       0.00       0.00       0.00
  nonlinear        :       0.92       0.00       0.10       0.56       0.01       0.00       0.00       0.01       0.00       0.24
  benders          :       0.00       0.00       0.00       0.00       0.00       0.00       0.00       0.00       0.00       0.00
  countsols        :       0.00       0.00       0.00       0.00       0.00       0.00       0.00       0.00       0.00       0.00
  components       :       0.00       0.00       0.00       0.00       0.00       0.00       0.00       0.00       0.00       0.00
Propagators        : #Propagate   #ResProp    Cutoffs    DomReds
  dualfix          :          5          0          0          0
  genvbounds       :       4590          2         36       5244
  nlobbt           :          0          0          0          0
  obbt             :          3          0          0          6
  probing          :          0          0          0          0
  pseudoobj        :       8550          0          0         16
  redcost          :       4183          0          0          0
  rootredcost      :         11          0          0          7
  symmetry         :          0          0          0          0
  vbounds          :       2474          0          0          0
Propagator Timings :  TotalTime  SetupTime   Presolve  Propagate    ResProp    SB-Prop
  dualfix          :       0.00       0.00       0.00       0.00       0.00       0.00
  genvbounds       :       0.01       0.00       0.00       0.01       0.00       0.00
  nlobbt           :       0.00       0.00       0.00       0.00       0.00       0.00
  obbt             :       0.01       0.00       0.00       0.01       0.00       0.00
  probing          :       0.00       0.00       0.00       0.00       0.00       0.00
  pseudoobj        :       0.00       0.00       0.00       0.00       0.00       0.00
  redcost          :       0.00       0.00       0.00       0.00       0.00       0.00
  rootredcost      :       0.00       0.00       0.00       0.00       0.00       0.00
  symmetry         :       0.00       0.00       0.00       0.00       0.00       0.00
  vbounds          :       0.00       0.00       0.00       0.00       0.00       0.00
Conflict Analysis  :       Time      Calls    Success    DomReds  Conflicts   Literals    Reconvs ReconvLits   Dualrays   Nonzeros   LP Iters   (pool size: [10000,10000])
  propagation      :       0.00        114          0          -          0        0.0          0        0.0          -          -          -
  infeasible LP    :       0.00         33         27          -          6        1.5          0        0.0         27        7.5          0
  bound exceed. LP :       0.00        228         13          -          0        0.0          0        0.0         13       11.7          0
  strong branching :       0.00          0          0          -          0        0.0          0        0.0          -          -          0
  pseudo solution  :       0.00          0          0          -          0        0.0          0        0.0          -          -          -
  applied globally :       0.00          -          -          0          2        2.0          -          -         17          -          -
  applied locally  :          -          -          -          0          2        1.5          -          -         23          -          -
Separators         :   ExecTime  SetupTime      Calls  RootCalls    Cutoffs    DomReds  FoundCuts ViaPoolAdd  DirectAdd    Applied ViaPoolApp  DirectApp      Conss
  cut pool         :       0.00          -        631         46          -          -        348        384          -          -          -          -          -    (maximal pool size:        201)
  aggregation      :       0.08       0.00        375         22          0          0        740        144        516        241         51        190          0
  > cmir           :          -          -          -          -          -          -          -        119        322        162         40        122          -
  > flowcover      :          -          -          -          -          -          -          -         24        141         58         10         48          -
  > knapsackcover  :          -          -          -          -          -          -          -          1         53         21          1         20          -
  cgmip            :       0.00       0.00          0          0          0          0          0          0          0          0          0          0          0
  clique           :       0.00       0.00         22         22          0          0          0          0          0          0          0          0          0
  closecuts        :       0.00       0.00          0          0          0          0          0          0          0          0          0          0          0
  convexproj       :       0.00       0.00          0          0          0          0          0          0          0          0          0          0          0
  disjunctive      :       0.00       0.00          0          0          0          0          0          0          0          0          0          0          0
  eccuts           :       0.00       0.00          0          0          0          0          0          0          0          0          0          0          0
  gauge            :       0.00       0.00          0          0          0          0          0          0          0          0          0          0          0
  gomory           :       0.01       0.00        337         10          0          0        819        224        713        348         75        273          0
  > gomorymi       :          -          -          -          -          -          -          -        224        687        343         75        268          -
  > strongcg       :          -          -          -          -          -          -          -          0         26          5          0          5          -
  impliedbounds    :       0.00       0.00        375         22          0          0          9          3          0          3          3          0          0
  interminor       :       0.00       0.00          0          0          0          0          0          0          0          0          0          0          0
  intobj           :       0.00       0.00          0          0          0          0          0          0          0          0          0          0          0
  mcf              :       0.00       0.00          1          1          0          0          0          0          0          0          0          0          0
  minor            :       0.00       0.00          0          0          0          0          0          0          0          0          0          0          0
  mixing           :       0.00       0.00        509         24          0          0          0          0          0          0          0          0          0
  oddcycle         :       0.00       0.00          0          0          0          0          0          0          0          0          0          0          0
  rapidlearning    :       0.00       0.00          0          0          0          0          0          0          0          0          0          0          0
  rlt              :       0.00       0.00         10         10          0          0          9         13          0          9          9          0          0
  zerohalf         :       0.01       0.00        347         20          0          0          2          0          2          1          0          1          0
Cutselectors       :   ExecTime  SetupTime      Calls  RootCalls   Selected     Forced   Filtered  RootSelec   RootForc   RootFilt 
  hybrid           :       0.00       0.00       2293         24       7458         98       2532        111          0         86
Pricers            :   ExecTime  SetupTime      Calls       Vars
  problem variables:       0.00          -          0          0
Branching Rules    :   ExecTime  SetupTime   BranchLP  BranchExt   BranchPS    Cutoffs    DomReds       Cuts      Conss   Children
  allfullstrong    :       0.00       0.00          0          0          0          0          0          0          0          0
  cloud            :       0.00       0.00          0          0          0          0          0          0          0          0
  distribution     :       0.00       0.00          0          0          0          0          0          0          0          0
  fullstrong       :       0.00       0.00          0          0          0          0          0          0          0          0
  inference        :       0.00       0.00          0          0          0          0          0          0          0          0
  leastinf         :       0.00       0.00          0          0          0          0          0          0          0          0
  lookahead        :       0.00       0.00          0          0          0          0          0          0          0          0
  mostinf          :       0.00       0.00          0          0          0          0          0          0          0          0
  multaggr         :       0.00       0.00          0          0          0          0          0          0          0          0
  nodereopt        :       0.00       0.00          0          0          0          0          0          0          0          0
  pscost           :       0.00       0.00          0          0          0          0          0          0          0          0
  random           :       0.00       0.00          0          0          0          0          0          0          0          0
  relpscost        :       0.38       0.00        808          0          0          0       2310          0         14       1172
  vanillafullstrong:       0.00       0.00          0          0          0          0          0          0          0          0
Primal Heuristics  :   ExecTime  SetupTime      Calls      Found       Best
  LP solutions     :       0.00          -          -          7          7
  relax solutions  :       0.00          -          -          0          0
  pseudo solutions :       0.00          -          -          0          0
  strong branching :       0.00          -          -          0          0
  actconsdiving    :       0.00       0.00          0          0          0
  adaptivediving   :       0.01       0.00         21          0          0
  alns             :       0.07       0.00          1          0          0
  bound            :       0.00       0.00          0          0          0
  clique           :       0.00       0.00          1          0          0
  coefdiving       :       0.00       0.00          0          0          0
  completesol      :       0.00       0.00          0          0          0
  conflictdiving   :       0.00       0.00         20          0          0
  crossover        :       0.07       0.00          1          0          0
  dins             :       0.00       0.00          0          0          0
  distributiondivin:       0.02       0.00          5          0          0
  dps              :       0.00       0.00          0          0          0
  dualval          :       0.00       0.00          0          0          0
  farkasdiving     :       0.00       0.00          0          0          0
  feaspump         :       0.00       0.00          1          0          0
  fixandinfer      :       0.00       0.00          0          0          0
  fracdiving       :       0.00       0.00         14          0          0
  gins             :       0.00       0.00          0          0          0
  guideddiving     :       0.00       0.00         15          0          0
  indicator        :       0.00       0.00          0          0          0
  indicatordiving  :       0.00       0.00          0          0          0
  intdiving        :       0.00       0.00          0          0          0
  intshifting      :       0.00       0.00          4          0          0
  linesearchdiving :       0.00       0.00         17          0          0
  localbranching   :       0.00       0.00          0          0          0
  locks            :       0.00       0.00          1          0          0
  lpface           :       0.00       0.00          0          0          0
  mpec             :       0.46       0.00          1          1          1
  multistart       :       0.00       0.00          0          0          0
  mutation         :       0.00       0.00          0          0          0
  nlpdiving        :       0.11       0.00          4          2          2
  objpscostdiving  :       0.00       0.00          4          0          0
  octane           :       0.00       0.00          0          0          0
  ofins            :       0.00       0.00          0          0          0
  oneopt           :       0.00       0.00         11          0          0
  padm             :       0.00       0.00          0          0          0
  proximity        :       0.00       0.00          0          0          0
  pscostdiving     :       0.01       0.00          9          0          0
  randrounding     :       0.01       0.00         25          0          0
  rens             :       0.33       0.00          1          1          1
  reoptsols        :       0.00       0.00          0          0          0
  repair           :       0.00       0.00          0          0          0
  rins             :       0.18       0.00          1          1          1
  rootsoldiving    :       0.00       0.00          4          0          0
  rounding         :       0.01       0.00        592          0          0
  shiftandpropagate:       0.00       0.00          1          0          0
  shifting         :       0.01       0.00        255          0          0
  simplerounding   :       0.00       0.00          0          0          0
  subnlp           :       0.00       0.00          2          0          0
  trivial          :       0.00       0.00          2          0          0
  trivialnegation  :       0.00       0.00          0          0          0
  trustregion      :       0.00       0.00          0          0          0
  trysol           :       0.00       0.00          0          0          0
  twoopt           :       0.00       0.00          0          0          0
  undercover       :       0.01       0.00          1          0          0
  vbounds          :       0.00       0.00          0          0          0
  veclendiving     :       0.00       0.00         15          0          0
  zeroobj          :       0.00       0.00          0          0          0
  zirounding       :       0.00       0.00        585          0          0
  other solutions  :          -          -          -          0          -
Expressions        :   #IntEval  IntEvalTi   #RevProp  RevPropTi    DomReds    Cutoffs  #Estimate  EstimTime  Branching  #Simplify SimplifyTi Simplified
  pow              :      55007       0.01       3448       0.00       3361          0       9336       0.00        795         15       0.00          0
  prod             :     830919       0.09      46246       0.02      14634         44      23318       0.00       1417        132       0.00          5
  sum              :     201393       0.05     195185       0.09      61742         31         16       0.00          0         39       0.00         19
  var              :     144151       0.01          0       0.00          0          0          0       0.00          0        296       0.00          0
  varidx           :          0       0.00          0       0.00          0          0          0       0.00          0          0       0.00          0
Nlhdlrs            :    Detects  DetectAll DetectTime   #IntEval  IntEvalTi   #RevProp  RevPropTi    DomReds    Cutoffs   #Enforce   EnfoTime       Cuts  Branching
  soc              :          0          0       0.00          0       0.00          0       0.00          0          0          0       0.00          0          0
  convex           :          0          0       0.00          0       0.00          0       0.00          0          0          0       0.00          0          0
  concave          :          0          0       0.00          0       0.00          0       0.00          0          0          0       0.00          0          0
  signomial        :          6          6       0.00          0       0.00          0       0.00          0          0      24226       0.01        871          0
  quotient         :          0          0       0.00          0       0.00          0       0.00          0          0          0       0.00          0          0
  quadratic        :          0          0       0.00          0       0.00          0       0.00          0          0          0       0.00          0          0
  default          :        128        896       0.00    1087146       0.20     245035       0.26      79737         89      32610       0.03       7881          0
  bilinear         :          6          6       0.00      50634       0.00      25105       0.00          0          0       7935       0.00          0          0
  perspective      :          0          0       0.00          0       0.00          0       0.00          0          0          0       0.00          0          0
LP                 :       Time      Calls Iterations  Iter/call   Iter/sec  Time-0-It Calls-0-It    ItLimit
  primal LP        :       0.09        568          0       0.00       0.00       0.09        568
  dual LP          :       0.67       3733      17159       4.82   25687.55       0.02        176
  lex dual LP      :       0.00          0          0       0.00          -
  barrier LP       :       0.00          0          0       0.00          -       0.00          0
  resolve instable :       0.00          0          0       0.00          -
  diving/probing LP:       0.05        103        809       7.85   17628.73
  strong branching :       0.06        408       1540       3.77   27319.50          -          -         20
    (at root node) :          -          8        154      19.25          -
  conflict analysis:       0.00          0          0       0.00          -
NLP relaxation     :
  solve time       :       0.11 (6 calls)
  convexity        :  nonconvex (13 linear rows, 0 convex ineq., 0 nonconvex ineq., 16 nonlinear eq. or two-sided ineq.)
NLP Solvers        :  #Problems  ProblemTi    #Solves  SolveTime      #Iter  Time/Iter      #Okay #TimeLimit #IterLimit #LObjLimit #Interrupt  #NumError #EvalError  #OutOfMem #LicenseEr #OtherTerm   #GlobOpt    #LocOpt  #Feasible #LocInfeas #GlobInfea #Unbounded   #Unknown
  ipopt            :          3       0.01         17       0.56        601       0.00         17          0          0          0          0          0          0          0          0          0          0         12          1          2          0          0          2
B&B Tree           :
  number of runs   :          1
  nodes            :       1451 (762 internal, 689 leaves)
  feasible leaves  :          7
  infeas. leaves   :        443
  objective leaves :        239
  nodes (total)    :       1451 (762 internal, 689 leaves)
  nodes left       :          0
  max depth        :         21
  max depth (total):         21
  backtracks       :        522 (36.0%)
  early backtracks :          0 (0.0%)
  nodes exc. ref.  :          0 (0.0%)
  delayed cutoffs  :          6
  repropagations   :         83 (1928 domain reductions, 5 cutoffs)
  avg switch length:       5.03
  switching time   :       0.16
Root Node          :
  First LP value   : +0.00000000000000e+00
  First LP Iters   :          4 (5970.15 Iter/sec)
  First LP Time    :       0.00
  Final Dual Bound : +0.00000000000000e+00
  Final Root Iters :        178
  Root LP Estimate : +1.76395440240488e-02
Solution           :
  Solutions found  :         12 (12 improvements)
  First Solution   : +2.49506490280169e-01   (in run 1, after 1 nodes, 0.42 seconds, depth 0, found by <rens>)
  Gap First Sol.   :   infinite
  Gap Last Sol.    :     329.33 %
  Primal Bound     : +1.89181490649471e-02   (in run 1, after 1447 nodes, 3.58 seconds, depth 21, found by <relaxation>)
  Dual Bound       : +1.89181490649471e-02
  Gap              :       0.00 %
Integrals          :      Total       Avg%
  primal-dual      :     357.59      99.74
  primal-ref       :          -          - (not evaluated)
  dual-ref         :          -          - (not evaluated)
